32912 34326 
33436 34054 
33184 34220 
33893 33748 
31286 35121 
33482 34036 
33393 34078 
33720 33855 
33057 34298 
33230 34202 
33734 33849 
33963 33689 
29780 35730 
31459 35025 
31332 35103 
31157 35210 
29534 35830 
33766 33837 
33691 33873 
33367 34088 
33605 33938 
31375 35071 
31526 35024 
29580 35812 
29452 35850 
29711 35749 
28784 35894 
28620 35966 
28484 35996 
32134 34585 
31421 35038 
31741 34858 
29498 35832 
28878 35860 
29993 35667 
28178 36076 
28376 36041 
28797 35885 
30530 35295 
32218 34531 
32418 34389 
32363 34425 
32293 34484 
31787 34840 
31914 34762 
30448 35315 
30292 35445 
31676 34912 
32105 34603 
